11 965
525 7 482 7 394 7 212 9 29 11 822 15 623 21
525 7 482 7 367 7 213 9 32 11 824 18
525 7 482 7 367 7 213 9 32 11 824 18
525 7 482 7 367 7 213 9 32 11 824 18
525 7 482 7 358 7 165 12
532 7
532 7
532 7
532 7
532 7
532 7
